39
[-1, 0, 9, 0, 0, 21, 0, 0, 87, 0, 69, 31, 81, 0, 43, 0, 0, 65, 8, 0, 85, 0, 0, 99, 23, 0, 0, 0, 0, 0, 0, 94, 0, 0, 10, 0, 80, 20, 0, 
0, -1, 0, 0, 57, 59, 7, 70, 0, 41, 57, 38, 0, 0, 32, 0, 27, 99, 0, 0, 0, 0, 54, 71, 0, 93, 0, 0, 40, 0, 90, 92, 20, 0, 0, 38, 0, 20, 0, 
9, 0, -1, 0, 0, 73, 75, 0, 0, 39, 44, 0, 0, 0, 0, 83, 0, 0, 35, 63, 1, 0, 91, 0, 65, 35, 84, 0, 48, 0, 0, 79, 0, 93, 59, 26, 0, 58, 33, 
0, 0, 0, -1, 0, 86, 3, 0, 0, 41, 49, 83, 32, 95, 0, 15, 79, 37, 0, 0, 0, 0, 0, 0, 0, 21, 18, 0, 0, 59, 0, 0, 0, 7, 24, 0, 0, 55, 0, 
0, 57, 0, 0, -1, 65, 53, 42, 0, 0, 31, 99, 16, 0, 57, 0, 60, 0, 36, 0, 0, 58, 0, 4, 0, 0, 50, 49, 0, 22, 28, 1, 30, 13, 0, 11, 0, 61, 68, 
21, 59, 73, 86, 65, -1, 68, 0, 3, 0, 0, 0, 67, 40, 0, 0, 0, 7, 0, 64, 0, 26, 73, 12, 55, 0, 17, 81, 0, 0, 17, 23, 41, 0, 84, 0, 40, 0, 8, 
0, 7, 75, 3, 53, 68, -1, 41, 81, 0, 0, 0, 0, 0, 65, 0, 64, 0, 0, 0, 88, 25, 0, 77, 41, 58, 0, 4, 82, 53, 96, 1, 7, 0, 56, 0, 79, 0, 0, 
0, 70, 0, 0, 42, 0, 41, -1, 0, 0, 0, 10, 22, 0, 74, 43, 0, 0, 0, 0, 0, 42, 87, 33, 69, 0, 0, 33, 57, 0, 21, 0, 92, 0, 90, 0, 74, 0, 12, 
87, 0, 0, 0, 0, 3, 81, 0, -1, 35, 10, 28, 0, 55, 33, 92, 57, 0, 0, 92, 98, 54, 0, 0, 30, 0, 64, 61, 6, 0, 33, 18, 0, 31, 17, 0, 100, 0, 100, 
0, 41, 39, 41, 0, 0, 0, 0, 35, -1, 0, 0, 6, 50, 0, 93, 23, 0, 60, 0, 0, 79, 0, 35, 1, 12, 0, 0, 0, 0, 0, 38, 48, 55, 91, 0, 83, 6, 75, 
69, 57, 44, 49, 31, 0, 0, 0, 10, 0, -1, 60, 0, 0, 0, 0, 89, 0, 77, 35, 40, 70, 0, 0, 19, 0, 0, 91, 0, 0, 75, 83, 0, 98, 9, 91, 0, 0, 63, 
31, 38, 0, 83, 99, 0, 0, 10, 28, 0, 60, -1, 0, 0, 0, 12, 52, 41, 59, 0, 0, 0, 33, 65, 14, 53, 0, 29, 62, 0, 0, 0, 93, 0, 0, 0, 0, 39, 0, 
81, 0, 0, 32, 16, 67, 0, 22, 0, 6, 0, 0, -1, 0, 0, 81, 7, 74, 15, 0, 0, 0, 0, 86, 0, 93, 5, 31, 0, 65, 94, 0, 0, 12, 0, 15, 9, 19, 5, 
0, 0, 0, 95, 0, 40, 0, 0, 55, 50, 0, 0, 0, -1, 75, 73, 0, 97, 11, 0, 60, 47, 0, 17, 35, 86, 6, 0, 0, 0, 38, 0, 94, 0, 0, 99, 0, 0, 55, 
43, 32, 0, 0, 57, 0, 65, 74, 33, 0, 0, 0, 0, 75, -1, 0, 33, 72, 97, 2, 31, 11, 0, 0, 78, 0, 0, 0, 48, 18, 10, 0, 39, 0, 59, 16, 0, 77, 0, 
0, 0, 83, 15, 0, 0, 0, 43, 92, 93, 0, 12, 81, 73, 0, -1, 0, 7, 40, 29, 0, 57, 0, 0, 68, 67, 0, 72, 0, 43, 0, 0, 94, 0, 0, 94, 89, 13, 34, 
0, 27, 0, 79, 60, 0, 64, 0, 57, 23, 89, 52, 7, 0, 33, 0, -1, 0, 0, 0, 10, 0, 26, 0, 17, 5, 0, 11, 29, 0, 80, 0, 0, 45, 67, 0, 0, 0, 0, 
65, 99, 0, 37, 0, 7, 0, 0, 0, 0, 0, 41, 74, 97, 72, 7, 0, -1, 71, 0, 77, 24, 72, 0, 15, 43, 0, 0, 0, 0, 0, 53, 75, 2, 0, 0, 0, 0, 63, 
8, 0, 35, 0, 36, 0, 0, 0, 0, 60, 77, 59, 15, 11, 97, 40, 0, 71, -1, 0, 0, 40, 84, 0, 87, 49, 0, 47, 0, 0, 12, 0, 0, 20, 61, 15, 61, 0, 0, 
0, 0, 63, 0, 0, 64, 0, 0, 92, 0, 35, 0, 0, 0, 2, 29, 0, 0, 0, -1, 38, 0, 47, 20, 26, 54, 46, 0, 0, 0, 67, 35, 3, 0, 0, 87, 70, 0, 0, 
85, 0, 1, 0, 0, 0, 88, 0, 98, 0, 40, 0, 0, 60, 31, 0, 10, 77, 0, 38, -1, 0, 0, 89, 9, 22, 85, 6, 91, 0, 18, 0, 58, 0, 0, 0, 0, 36, 0, 
0, 0, 0, 0, 58, 26, 25, 42, 54, 79, 70, 0, 0, 47, 11, 57, 0, 24, 40, 0, 0, -1, 36, 0, 0, 4, 41, 93, 1, 0, 51, 0, 10, 3, 0, 1, 94, 0, 0, 
0, 54, 91, 0, 0, 73, 0, 87, 0, 0, 0, 33, 0, 0, 0, 0, 26, 72, 84, 47, 0, 36, -1, 0, 0, 48, 0, 0, 11, 33, 0, 29, 39, 7, 12, 52, 0, 0, 0, 
99, 71, 0, 0, 4, 12, 77, 33, 0, 35, 0, 65, 86, 17, 0, 0, 0, 0, 0, 20, 89, 0, 0, -1, 28, 87, 35, 0, 0, 46, 0, 61, 47, 0, 26, 0, 88, 6, 0, 
23, 0, 65, 0, 0, 55, 41, 69, 30, 1, 19, 14, 0, 35, 78, 68, 17, 15, 87, 26, 9, 0, 0, 28, -1, 0, 92, 0, 0, 0, 60, 88, 0, 81, 0, 0, 27, 0, 0, 
0, 93, 35, 21, 0, 0, 58, 0, 0, 12, 0, 53, 93, 86, 0, 67, 5, 43, 49, 54, 22, 4, 48, 87, 0, -1, 23, 93, 0, 41, 26, 0, 0, 27, 28, 36, 0, 0, 0, 
0, 0, 84, 18, 50, 17, 0, 0, 64, 0, 0, 0, 5, 6, 0, 0, 0, 0, 0, 46, 85, 41, 0, 35, 92, 23, -1, 64, 0, 0, 46, 80, 15, 76, 0, 0, 25, 0, 76, 
0, 0, 0, 0, 49, 81, 4, 33, 61, 0, 91, 29, 31, 0, 0, 72, 11, 0, 47, 0, 6, 93, 0, 0, 0, 93, 64, -1, 0, 19, 0, 0, 93, 0, 4, 0, 46, 18, 61, 
0, 40, 48, 0, 0, 0, 82, 57, 6, 0, 0, 62, 0, 0, 48, 0, 29, 0, 0, 0, 91, 1, 11, 0, 0, 0, 0, 0, -1, 68, 34, 100, 0, 0, 96, 0, 97, 13, 97, 
0, 0, 0, 59, 22, 0, 53, 0, 0, 0, 0, 0, 65, 0, 18, 43, 0, 0, 0, 0, 0, 0, 33, 46, 0, 41, 0, 19, 68, -1, 0, 77, 70, 0, 0, 0, 0, 84, 0, 
0, 90, 0, 0, 28, 17, 96, 21, 33, 0, 75, 0, 94, 38, 10, 0, 80, 0, 12, 67, 18, 51, 0, 0, 60, 26, 46, 0, 34, 0, -1, 67, 0, 25, 0, 0, 85, 21, 42, 
94, 92, 79, 0, 1, 23, 1, 0, 18, 38, 83, 0, 0, 0, 0, 0, 0, 53, 0, 35, 0, 0, 29, 61, 88, 0, 80, 0, 100, 77, 67, -1, 87, 76, 55, 73, 0, 87, 93, 
0, 20, 0, 0, 30, 41, 7, 92, 0, 48, 0, 93, 0, 94, 39, 94, 0, 75, 0, 3, 58, 10, 39, 47, 0, 0, 15, 93, 0, 70, 0, 87, -1, 0, 0, 0, 0, 0, 0, 
0, 0, 93, 7, 13, 0, 0, 0, 31, 55, 98, 0, 12, 0, 0, 0, 45, 2, 20, 0, 0, 3, 7, 0, 81, 27, 76, 0, 0, 0, 25, 76, 0, -1, 0, 0, 0, 16, 73, 
10, 0, 59, 24, 0, 84, 56, 90, 17, 91, 9, 0, 0, 0, 59, 0, 67, 0, 61, 0, 0, 0, 12, 26, 0, 28, 0, 4, 96, 0, 0, 55, 0, 0, -1, 89, 95, 87, 70, 
0, 38, 26, 0, 11, 0, 0, 0, 0, 0, 91, 0, 15, 99, 16, 94, 0, 0, 15, 87, 0, 1, 52, 0, 0, 36, 0, 0, 0, 0, 0, 73, 0, 0, 89, -1, 99, 43, 0, 
80, 0, 0, 0, 0, 40, 79, 74, 100, 83, 0, 0, 9, 0, 0, 89, 0, 0, 61, 70, 0, 94, 0, 88, 27, 0, 25, 46, 97, 0, 85, 0, 0, 0, 95, 99, -1, 8, 40, 
20, 20, 58, 55, 61, 0, 0, 0, 0, 6, 0, 39, 19, 0, 77, 13, 0, 0, 0, 0, 36, 0, 0, 6, 0, 0, 0, 18, 13, 84, 21, 87, 0, 16, 87, 43, 8, -1, 59, 
0, 0, 33, 0, 68, 8, 0, 12, 100, 75, 63, 0, 5, 55, 0, 34, 0, 63, 0, 0, 0, 0, 0, 0, 0, 0, 76, 61, 97, 0, 42, 93, 0, 73, 70, 0, 40, 59, -1]